p cnf 361 1
361 0
w 1 0.853142
w 2 1 0.886693
w 2 -1 0.0454458
w 3 2 1
w 3 -2 0
w 4 3 0
w 4 -3 1
w 5 4 0.892035
w 5 -4 0.326762
w 6 5 0.823153
w 6 -5 0.513949
w 7 6 1
w 7 -6 0
w 8 7 0.811732
w 8 -7 0.283042
w 9 8 0.794207
w 9 -8 0.67685
w 10 9 0.489234
w 10 -9 0.629727
w 11 10 1
w 11 -10 0
w 12 11 0
w 12 -11 1
w 13 12 0
w 13 -12 1
w 14 13 0
w 14 -13 1
w 15 14 0
w 15 -14 1
w 16 15 1
w 16 -15 0
w 17 16 1
w 17 -16 0
w 18 17 0
w 18 -17 1
w 19 18 0.00378058
w 19 -18 0.834812
w 20 1 0
w 20 -1 1
w 21 20 2 1
w 21 20 -2 1
w 21 -20 2 0
w 21 -20 -2 1
w 22 21 3 0
w 22 21 -3 0
w 22 -21 3 1
w 22 -21 -3 0
w 23 22 4 0
w 23 22 -4 0
w 23 -22 4 0
w 23 -22 -4 1
w 24 23 5 0
w 24 23 -5 1
w 24 -23 5 1
w 24 -23 -5 1
w 25 24 6 0
w 25 24 -6 1
w 25 -24 6 0
w 25 -24 -6 1
w 26 25 7 0.891073
w 26 25 -7 0.0252932
w 26 -25 7 0.249862
w 26 -25 -7 0.12315
w 27 26 8 0
w 27 26 -8 0
w 27 -26 8 0
w 27 -26 -8 1
w 28 27 9 0.0250855
w 28 27 -9 0.241418
w 28 -27 9 0.651936
w 28 -27 -9 0.653206
w 29 28 10 0.684527
w 29 28 -10 0.463036
w 29 -28 10 0.0719162
w 29 -28 -10 0.142244
w 30 29 11 0
w 30 29 -11 1
w 30 -29 11 0
w 30 -29 -11 1
w 31 30 12 0
w 31 30 -12 0
w 31 -30 12 0
w 31 -30 -12 1
w 32 31 13 0.224631
w 32 31 -13 0.825478
w 32 -31 13 0.0953866
w 32 -31 -13 0.347781
w 33 32 14 0.649885
w 33 32 -14 0.986051
w 33 -32 14 0.644001
w 33 -32 -14 0.303226
w 34 33 15 0.669086
w 34 33 -15 0.544644
w 34 -33 15 0.468225
w 34 -33 -15 0.322292
w 35 34 16 1
w 35 34 -16 1
w 35 -34 16 0
w 35 -34 -16 1
w 36 35 17 0
w 36 35 -17 0
w 36 -35 17 1
w 36 -35 -17 1
w 37 36 18 0.603038
w 37 36 -18 0.669366
w 37 -36 18 0.630729
w 37 -36 -18 0.936596
w 38 37 19 0
w 38 37 -19 0
w 38 -37 19 1
w 38 -37 -19 0
w 39 20 0
w 39 -20 1
w 40 39 21 0
w 40 39 -21 0
w 40 -39 21 1
w 40 -39 -21 0
w 41 40 22 1
w 41 40 -22 0
w 41 -40 22 1
w 41 -40 -22 0
w 42 41 23 0.339963
w 42 41 -23 0.227322
w 42 -41 23 0.741044
w 42 -41 -23 0.946033
w 43 42 24 0
w 43 42 -24 1
w 43 -42 24 1
w 43 -42 -24 1
w 44 43 25 0
w 44 43 -25 1
w 44 -43 25 1
w 44 -43 -25 0
w 45 44 26 0.0112624
w 45 44 -26 0.654884
w 45 -44 26 0.276654
w 45 -44 -26 0.238556
w 46 45 27 0.771713
w 46 45 -27 0.10985
w 46 -45 27 0.401159
w 46 -45 -27 0.0830615
w 47 46 28 0.470554
w 47 46 -28 0.862636
w 47 -46 28 0.512903
w 47 -46 -28 0.639274
w 48 47 29 0.160902
w 48 47 -29 0.979237
w 48 -47 29 0.0222837
w 48 -47 -29 0.901946
w 49 48 30 0.456381
w 49 48 -30 0.96873
w 49 -48 30 0.502589
w 49 -48 -30 0.432642
w 50 49 31 0.749273
w 50 49 -31 0.0396316
w 50 -49 31 0.24497
w 50 -49 -31 0.465507
w 51 50 32 1
w 51 50 -32 0
w 51 -50 32 0
w 51 -50 -32 1
w 52 51 33 0.654167
w 52 51 -33 0.0609826
w 52 -51 33 0.825176
w 52 -51 -33 0.0553266
w 53 52 34 1
w 53 52 -34 0
w 53 -52 34 1
w 53 -52 -34 1
w 54 53 35 1
w 54 53 -35 0
w 54 -53 35 0
w 54 -53 -35 0
w 55 54 36 0
w 55 54 -36 1
w 55 -54 36 1
w 55 -54 -36 1
w 56 55 37 0.65844
w 56 55 -37 0.321525
w 56 -55 37 0.75258
w 56 -55 -37 0.90341
w 57 56 38 0.875455
w 57 56 -38 0.916026
w 57 -56 38 0.263802
w 57 -56 -38 0.653214
w 58 39 0
w 58 -39 1
w 59 58 40 0
w 59 58 -40 1
w 59 -58 40 0
w 59 -58 -40 0
w 60 59 41 1
w 60 59 -41 0
w 60 -59 41 0
w 60 -59 -41 0
w 61 60 42 1
w 61 60 -42 0
w 61 -60 42 1
w 61 -60 -42 1
w 62 61 43 0
w 62 61 -43 0
w 62 -61 43 1
w 62 -61 -43 1
w 63 62 44 0
w 63 62 -44 0
w 63 -62 44 1
w 63 -62 -44 1
w 64 63 45 0.966154
w 64 63 -45 0.212407
w 64 -63 45 0.317071
w 64 -63 -45 0.17145
w 65 64 46 1
w 65 64 -46 1
w 65 -64 46 1
w 65 -64 -46 0
w 66 65 47 0.275549
w 66 65 -47 0.875747
w 66 -65 47 0.265054
w 66 -65 -47 0.543569
w 67 66 48 0.483698
w 67 66 -48 0.9608
w 67 -66 48 0.127624
w 67 -66 -48 0.526267
w 68 67 49 0
w 68 67 -49 1
w 68 -67 49 1
w 68 -67 -49 0
w 69 68 50 0.0641817
w 69 68 -50 0.397042
w 69 -68 50 0.673367
w 69 -68 -50 0.114309
w 70 69 51 1
w 70 69 -51 1
w 70 -69 51 0
w 70 -69 -51 1
w 71 70 52 0.278747
w 71 70 -52 0.689641
w 71 -70 52 0.745428
w 71 -70 -52 0.265907
w 72 71 53 0.0209766
w 72 71 -53 0.141654
w 72 -71 53 0.802747
w 72 -71 -53 0.564545
w 73 72 54 0
w 73 72 -54 1
w 73 -72 54 1
w 73 -72 -54 0
w 74 73 55 0.594187
w 74 73 -55 0.661854
w 74 -73 55 0.871999
w 74 -73 -55 0.829656
w 75 74 56 0.93618
w 75 74 -56 0.226698
w 75 -74 56 0.220186
w 75 -74 -56 0.050489
w 76 75 57 0.55741
w 76 75 -57 0.130951
w 76 -75 57 0.130399
w 76 -75 -57 0.211706
w 77 58 1
w 77 -58 0
w 78 77 59 0
w 78 77 -59 0
w 78 -77 59 1
w 78 -77 -59 1
w 79 78 60 0.898014
w 79 78 -60 0.412944
w 79 -78 60 0.210937
w 79 -78 -60 0.969157
w 80 79 61 0.736282
w 80 79 -61 0.167924
w 80 -79 61 0.512101
w 80 -79 -61 0.690816
w 81 80 62 0.173955
w 81 80 -62 0.562814
w 81 -80 62 0.591768
w 81 -80 -62 0.720773
w 82 81 63 0
w 82 81 -63 1
w 82 -81 63 0
w 82 -81 -63 0
w 83 82 64 1
w 83 82 -64 0
w 83 -82 64 1
w 83 -82 -64 1
w 84 83 65 1
w 84 83 -65 1
w 84 -83 65 0
w 84 -83 -65 1
w 85 84 66 0.673006
w 85 84 -66 0.854902
w 85 -84 66 0.158945
w 85 -84 -66 0.883943
w 86 85 67 0.858334
w 86 85 -67 0.620226
w 86 -85 67 0.991983
w 86 -85 -67 0.370435
w 87 86 68 0
w 87 86 -68 1
w 87 -86 68 1
w 87 -86 -68 1
w 88 87 69 1
w 88 87 -69 1
w 88 -87 69 0
w 88 -87 -69 1
w 89 88 70 0.704491
w 89 88 -70 0.602769
w 89 -88 70 0.0763484
w 89 -88 -70 0.414567
w 90 89 71 0.477546
w 90 89 -71 0.615095
w 90 -89 71 0.801871
w 90 -89 -71 0.50416
w 91 90 72 0.547872
w 91 90 -72 0.177166
w 91 -90 72 0.426885
w 91 -90 -72 0.706817
w 92 91 73 1
w 92 91 -73 0
w 92 -91 73 1
w 92 -91 -73 1
w 93 92 74 0.992377
w 93 92 -74 0.99702
w 93 -92 74 0.479975
w 93 -92 -74 0.866233
w 94 93 75 0
w 94 93 -75 1
w 94 -93 75 0
w 94 -93 -75 0
w 95 94 76 0
w 95 94 -76 0
w 95 -94 76 1
w 95 -94 -76 0
w 96 77 1
w 96 -77 0
w 97 96 78 0.232126
w 97 96 -78 0.120403
w 97 -96 78 0.257396
w 97 -96 -78 0.779998
w 98 97 79 1
w 98 97 -79 1
w 98 -97 79 1
w 98 -97 -79 0
w 99 98 80 0
w 99 98 -80 1
w 99 -98 80 1
w 99 -98 -80 0
w 100 99 81 1
w 100 99 -81 0
w 100 -99 81 1
w 100 -99 -81 0
w 101 100 82 1
w 101 100 -82 0
w 101 -100 82 0
w 101 -100 -82 0
w 102 101 83 0.0633106
w 102 101 -83 0.226305
w 102 -101 83 0.889993
w 102 -101 -83 0.493565
w 103 102 84 0.575405
w 103 102 -84 0.725691
w 103 -102 84 0.96295
w 103 -102 -84 0.832801
w 104 103 85 0.260519
w 104 103 -85 0.517081
w 104 -103 85 0.992503
w 104 -103 -85 0.619198
w 105 104 86 0
w 105 104 -86 1
w 105 -104 86 1
w 105 -104 -86 1
w 106 105 87 0.805623
w 106 105 -87 0.499545
w 106 -105 87 0.590224
w 106 -105 -87 0.323674
w 107 106 88 0.72793
w 107 106 -88 0.348934
w 107 -106 88 0.876133
w 107 -106 -88 0.0270533
w 108 107 89 0
w 108 107 -89 0
w 108 -107 89 0
w 108 -107 -89 1
w 109 108 90 0.505395
w 109 108 -90 0.161206
w 109 -108 90 0.309621
w 109 -108 -90 0.468345
w 110 109 91 0.81531
w 110 109 -91 0.728864
w 110 -109 91 0.511088
w 110 -109 -91 0.807813
w 111 110 92 1
w 111 110 -92 1
w 111 -110 92 0
w 111 -110 -92 0
w 112 111 93 0.698874
w 112 111 -93 0.399469
w 112 -111 93 0.383845
w 112 -111 -93 0.289098
w 113 112 94 0.0960544
w 113 112 -94 0.0170272
w 113 -112 94 0.0720775
w 113 -112 -94 0.972187
w 114 113 95 0
w 114 113 -95 0
w 114 -113 95 0
w 114 -113 -95 1
w 115 96 0.676862
w 115 -96 0.415002
w 116 115 97 1
w 116 115 -97 1
w 116 -115 97 0
w 116 -115 -97 1
w 117 116 98 0.651117
w 117 116 -98 0.222134
w 117 -116 98 0.883488
w 117 -116 -98 0.503398
w 118 117 99 0
w 118 117 -99 0
w 118 -117 99 1
w 118 -117 -99 0
w 119 118 100 0.217379
w 119 118 -100 0.599946
w 119 -118 100 0.867598
w 119 -118 -100 0.234406
w 120 119 101 0.839786
w 120 119 -101 0.278486
w 120 -119 101 0.180644
w 120 -119 -101 0.507781
w 121 120 102 1
w 121 120 -102 1
w 121 -120 102 0
w 121 -120 -102 0
w 122 121 103 0
w 122 121 -103 1
w 122 -121 103 0
w 122 -121 -103 0
w 123 122 104 0
w 123 122 -104 1
w 123 -122 104 1
w 123 -122 -104 0
w 124 123 105 0
w 124 123 -105 1
w 124 -123 105 0
w 124 -123 -105 0
w 125 124 106 0.316359
w 125 124 -106 0.645454
w 125 -124 106 0.343254
w 125 -124 -106 0.183958
w 126 125 107 0.0152777
w 126 125 -107 0.0237435
w 126 -125 107 0.158347
w 126 -125 -107 0.195922
w 127 126 108 0.571277
w 127 126 -108 0.548033
w 127 -126 108 0.293101
w 127 -126 -108 0.702582
w 128 127 109 0.469679
w 128 127 -109 0.86188
w 128 -127 109 0.751189
w 128 -127 -109 0.0552647
w 129 128 110 0.799442
w 129 128 -110 0.560947
w 129 -128 110 0.518201
w 129 -128 -110 0.06983
w 130 129 111 0.675318
w 130 129 -111 0.569625
w 130 -129 111 0.816622
w 130 -129 -111 0.220133
w 131 130 112 0.55993
w 131 130 -112 0.536492
w 131 -130 112 0.643155
w 131 -130 -112 0.903184
w 132 131 113 0.523015
w 132 131 -113 0.918462
w 132 -131 113 0.744193
w 132 -131 -113 0.681362
w 133 132 114 1
w 133 132 -114 0
w 133 -132 114 1
w 133 -132 -114 0
w 134 115 0.239424
w 134 -115 0.0384968
w 135 134 116 0.990613
w 135 134 -116 0.0937615
w 135 -134 116 0.681583
w 135 -134 -116 0.790055
w 136 135 117 0.199784
w 136 135 -117 0.859885
w 136 -135 117 0.604826
w 136 -135 -117 0.875102
w 137 136 118 0
w 137 136 -118 1
w 137 -136 118 1
w 137 -136 -118 1
w 138 137 119 0.070365
w 138 137 -119 0.884562
w 138 -137 119 0.352177
w 138 -137 -119 0.59338
w 139 138 120 0.0963701
w 139 138 -120 0.274742
w 139 -138 120 0.917408
w 139 -138 -120 0.372088
w 140 139 121 0.579825
w 140 139 -121 0.940906
w 140 -139 121 0.482602
w 140 -139 -121 0.819249
w 141 140 122 0.299704
w 141 140 -122 0.809862
w 141 -140 122 0.0731644
w 141 -140 -122 0.981287
w 142 141 123 0.727873
w 142 141 -123 0.181071
w 142 -141 123 0.459802
w 142 -141 -123 0.332699
w 143 142 124 0
w 143 142 -124 1
w 143 -142 124 1
w 143 -142 -124 0
w 144 143 125 0.783135
w 144 143 -125 0.386887
w 144 -143 125 0.620087
w 144 -143 -125 0.135311
w 145 144 126 0.423112
w 145 144 -126 0.231681
w 145 -144 126 0.255009
w 145 -144 -126 0.34052
w 146 145 127 0.78239
w 146 145 -127 0.920345
w 146 -145 127 0.544675
w 146 -145 -127 0.264992
w 147 146 128 0.524078
w 147 146 -128 0.564696
w 147 -146 128 0.549455
w 147 -146 -128 0.597242
w 148 147 129 0.149372
w 148 147 -129 0.325115
w 148 -147 129 0.727055
w 148 -147 -129 0.609174
w 149 148 130 0.783228
w 149 148 -130 0.498486
w 149 -148 130 0.411961
w 149 -148 -130 0.934636
w 150 149 131 0.147486
w 150 149 -131 0.71777
w 150 -149 131 0.201895
w 150 -149 -131 0.767573
w 151 150 132 0.182162
w 151 150 -132 0.190685
w 151 -150 132 0.0847624
w 151 -150 -132 0.437171
w 152 151 133 0.688531
w 152 151 -133 0.219562
w 152 -151 133 0.45155
w 152 -151 -133 0.233206
w 153 134 1
w 153 -134 0
w 154 153 135 0.0492502
w 154 153 -135 0.740599
w 154 -153 135 0.354527
w 154 -153 -135 0.595233
w 155 154 136 0.679642
w 155 154 -136 0.322288
w 155 -154 136 0.499145
w 155 -154 -136 0.337456
w 156 155 137 0
w 156 155 -137 0
w 156 -155 137 1
w 156 -155 -137 0
w 157 156 138 0.757921
w 157 156 -138 0.0145351
w 157 -156 138 0.664475
w 157 -156 -138 0.611003
w 158 157 139 0
w 158 157 -139 1
w 158 -157 139 1
w 158 -157 -139 0
w 159 158 140 1
w 159 158 -140 1
w 159 -158 140 0
w 159 -158 -140 1
w 160 159 141 1
w 160 159 -141 1
w 160 -159 141 0
w 160 -159 -141 1
w 161 160 142 0.408956
w 161 160 -142 0.304756
w 161 -160 142 0.158772
w 161 -160 -142 0.746411
w 162 161 143 0
w 162 161 -143 0
w 162 -161 143 1
w 162 -161 -143 0
w 163 162 144 0
w 163 162 -144 1
w 163 -162 144 1
w 163 -162 -144 0
w 164 163 145 1
w 164 163 -145 1
w 164 -163 145 1
w 164 -163 -145 0
w 165 164 146 0.667576
w 165 164 -146 0.136642
w 165 -164 146 0.516912
w 165 -164 -146 0.00556081
w 166 165 147 0
w 166 165 -147 1
w 166 -165 147 1
w 166 -165 -147 0
w 167 166 148 1
w 167 166 -148 0
w 167 -166 148 0
w 167 -166 -148 1
w 168 167 149 0.0902929
w 168 167 -149 0.910158
w 168 -167 149 0.272207
w 168 -167 -149 0.540716
w 169 168 150 0.664937
w 169 168 -150 0.749061
w 169 -168 150 0.86278
w 169 -168 -150 0.722141
w 170 169 151 0.0430562
w 170 169 -151 0.634504
w 170 -169 151 0.0835207
w 170 -169 -151 0.857201
w 171 170 152 0.982929
w 171 170 -152 0.524777
w 171 -170 152 0.0698746
w 171 -170 -152 0.499841
w 172 153 0.235574
w 172 -153 0.39154
w 173 172 154 0.170929
w 173 172 -154 0.0125523
w 173 -172 154 0.298398
w 173 -172 -154 0.765912
w 174 173 155 1
w 174 173 -155 0
w 174 -173 155 0
w 174 -173 -155 0
w 175 174 156 1
w 175 174 -156 0
w 175 -174 156 0
w 175 -174 -156 0
w 176 175 157 0
w 176 175 -157 0
w 176 -175 157 1
w 176 -175 -157 1
w 177 176 158 1
w 177 176 -158 0
w 177 -176 158 0
w 177 -176 -158 0
w 178 177 159 0
w 178 177 -159 1
w 178 -177 159 1
w 178 -177 -159 1
w 179 178 160 0
w 179 178 -160 1
w 179 -178 160 1
w 179 -178 -160 1
w 180 179 161 0.327131
w 180 179 -161 0.807878
w 180 -179 161 0.758702
w 180 -179 -161 0.395843
w 181 180 162 1
w 181 180 -162 0
w 181 -180 162 0
w 181 -180 -162 1
w 182 181 163 1
w 182 181 -163 1
w 182 -181 163 0
w 182 -181 -163 0
w 183 182 164 1
w 183 182 -164 1
w 183 -182 164 0
w 183 -182 -164 0
w 184 183 165 0.358447
w 184 183 -165 0.787616
w 184 -183 165 0.729482
w 184 -183 -165 0.709818
w 185 184 166 0.779795
w 185 184 -166 0.232118
w 185 -184 166 0.569626
w 185 -184 -166 0.128507
w 186 185 167 0.509428
w 186 185 -167 0.455638
w 186 -185 167 0.328209
w 186 -185 -167 0.26813
w 187 186 168 0.565911
w 187 186 -168 0.11794
w 187 -186 168 0.856754
w 187 -186 -168 0.11264
w 188 187 169 0.220515
w 188 187 -169 0.831175
w 188 -187 169 0.807833
w 188 -187 -169 0.511175
w 189 188 170 0.00456209
w 189 188 -170 0.812253
w 189 -188 170 0.770033
w 189 -188 -170 0.247213
w 190 189 171 1
w 190 189 -171 1
w 190 -189 171 1
w 190 -189 -171 0
w 191 172 1
w 191 -172 0
w 192 191 173 0.547597
w 192 191 -173 0.136267
w 192 -191 173 0.01012
w 192 -191 -173 0.067927
w 193 192 174 0.465758
w 193 192 -174 0.396136
w 193 -192 174 0.913825
w 193 -192 -174 0.31724
w 194 193 175 0.0317655
w 194 193 -175 0.173994
w 194 -193 175 0.0746874
w 194 -193 -175 0.75556
w 195 194 176 1
w 195 194 -176 0
w 195 -194 176 0
w 195 -194 -176 0
w 196 195 177 0.717938
w 196 195 -177 0.440468
w 196 -195 177 0.815168
w 196 -195 -177 0.824618
w 197 196 178 0.420828
w 197 196 -178 0.718914
w 197 -196 178 0.914622
w 197 -196 -178 0.736306
w 198 197 179 0
w 198 197 -179 0
w 198 -197 179 1
w 198 -197 -179 0
w 199 198 180 0
w 199 198 -180 1
w 199 -198 180 0
w 199 -198 -180 1
w 200 199 181 0.710013
w 200 199 -181 0.0131087
w 200 -199 181 0.763347
w 200 -199 -181 0.7847
w 201 200 182 0.157856
w 201 200 -182 0.690563
w 201 -200 182 0.332062
w 201 -200 -182 0.0635401
w 202 201 183 0
w 202 201 -183 0
w 202 -201 183 1
w 202 -201 -183 1
w 203 202 184 0.61427
w 203 202 -184 0.136013
w 203 -202 184 0.325009
w 203 -202 -184 0.528892
w 204 203 185 0.610565
w 204 203 -185 0.325127
w 204 -203 185 0.156222
w 204 -203 -185 0.032387
w 205 204 186 1
w 205 204 -186 1
w 205 -204 186 0
w 205 -204 -186 1
w 206 205 187 1
w 206 205 -187 1
w 206 -205 187 0
w 206 -205 -187 0
w 207 206 188 0.863025
w 207 206 -188 0.91415
w 207 -206 188 0.441295
w 207 -206 -188 0.195087
w 208 207 189 0.802292
w 208 207 -189 0.0951034
w 208 -207 189 0.759168
w 208 -207 -189 0.603759
w 209 208 190 0.365263
w 209 208 -190 0.218029
w 209 -208 190 0.946301
w 209 -208 -190 0.690273
w 210 191 0.81862
w 210 -191 0.300837
w 211 210 192 0
w 211 210 -192 0
w 211 -210 192 1
w 211 -210 -192 0
w 212 211 193 0
w 212 211 -193 1
w 212 -211 193 0
w 212 -211 -193 1
w 213 212 194 0.608734
w 213 212 -194 0.356365
w 213 -212 194 0.455676
w 213 -212 -194 0.471759
w 214 213 195 1
w 214 213 -195 1
w 214 -213 195 0
w 214 -213 -195 1
w 215 214 196 0.00737326
w 215 214 -196 0.303021
w 215 -214 196 0.572237
w 215 -214 -196 0.372637
w 216 215 197 0.518538
w 216 215 -197 0.0629092
w 216 -215 197 0.267971
w 216 -215 -197 0.337158
w 217 216 198 1
w 217 216 -198 1
w 217 -216 198 0
w 217 -216 -198 1
w 218 217 199 0.1301
w 218 217 -199 0.150672
w 218 -217 199 0.533809
w 218 -217 -199 0.644477
w 219 218 200 0.238754
w 219 218 -200 0.253211
w 219 -218 200 0.107107
w 219 -218 -200 0.69443
w 220 219 201 0.377622
w 220 219 -201 0.5914
w 220 -219 201 0.391815
w 220 -219 -201 0.625827
w 221 220 202 0
w 221 220 -202 1
w 221 -220 202 0
w 221 -220 -202 1
w 222 221 203 1
w 222 221 -203 1
w 222 -221 203 0
w 222 -221 -203 0
w 223 222 204 0.432493
w 223 222 -204 0.722726
w 223 -222 204 0.893699
w 223 -222 -204 0.129463
w 224 223 205 1
w 224 223 -205 1
w 224 -223 205 0
w 224 -223 -205 0
w 225 224 206 0.167689
w 225 224 -206 0.461158
w 225 -224 206 0.15725
w 225 -224 -206 0.274796
w 226 225 207 1
w 226 225 -207 0
w 226 -225 207 0
w 226 -225 -207 1
w 227 226 208 0
w 227 226 -208 1
w 227 -226 208 0
w 227 -226 -208 1
w 228 227 209 0
w 228 227 -209 0
w 228 -227 209 1
w 228 -227 -209 1
w 229 210 1
w 229 -210 0
w 230 229 211 0
w 230 229 -211 1
w 230 -229 211 0
w 230 -229 -211 1
w 231 230 212 0.807549
w 231 230 -212 0.534725
w 231 -230 212 0.784737
w 231 -230 -212 0.711589
w 232 231 213 0.245895
w 232 231 -213 0.868839
w 232 -231 213 0.977209
w 232 -231 -213 0.401483
w 233 232 214 0.629627
w 233 232 -214 0.148471
w 233 -232 214 0.0250942
w 233 -232 -214 0.907872
w 234 233 215 0
w 234 233 -215 0
w 234 -233 215 0
w 234 -233 -215 1
w 235 234 216 0.56353
w 235 234 -216 0.00503559
w 235 -234 216 0.72263
w 235 -234 -216 0.692309
w 236 235 217 0.141153
w 236 235 -217 0.543813
w 236 -235 217 0.858813
w 236 -235 -217 0.689139
w 237 236 218 0.421146
w 237 236 -218 0.496688
w 237 -236 218 0.196317
w 237 -236 -218 0.205883
w 238 237 219 1
w 238 237 -219 1
w 238 -237 219 1
w 238 -237 -219 0
w 239 238 220 0.828175
w 239 238 -220 0.505567
w 239 -238 220 0.00173098
w 239 -238 -220 0.853269
w 240 239 221 1
w 240 239 -221 0
w 240 -239 221 0
w 240 -239 -221 1
w 241 240 222 0.969358
w 241 240 -222 0.568842
w 241 -240 222 0.917893
w 241 -240 -222 0.691988
w 242 241 223 0
w 242 241 -223 1
w 242 -241 223 0
w 242 -241 -223 1
w 243 242 224 0.466555
w 243 242 -224 0.182926
w 243 -242 224 0.0189671
w 243 -242 -224 0.662873
w 244 243 225 0
w 244 243 -225 0
w 244 -243 225 0
w 244 -243 -225 1
w 245 244 226 1
w 245 244 -226 0
w 245 -244 226 1
w 245 -244 -226 1
w 246 245 227 0.35655
w 246 245 -227 0.883431
w 246 -245 227 0.291965
w 246 -245 -227 0.589306
w 247 246 228 0.204822
w 247 246 -228 0.558664
w 247 -246 228 0.457584
w 247 -246 -228 0.122715
w 248 229 0
w 248 -229 1
w 249 248 230 0
w 249 248 -230 0
w 249 -248 230 1
w 249 -248 -230 1
w 250 249 231 0.970388
w 250 249 -231 0.62504
w 250 -249 231 0.653126
w 250 -249 -231 0.359197
w 251 250 232 0.214729
w 251 250 -232 0.199783
w 251 -250 232 0.156643
w 251 -250 -232 0.652273
w 252 251 233 0.289176
w 252 251 -233 0.595383
w 252 -251 233 0.589206
w 252 -251 -233 0.274979
w 253 252 234 0.472637
w 253 252 -234 0.566944
w 253 -252 234 0.541239
w 253 -252 -234 0.361379
w 254 253 235 0.0999035
w 254 253 -235 0.818963
w 254 -253 235 0.894482
w 254 -253 -235 0.350556
w 255 254 236 0.920164
w 255 254 -236 0.434349
w 255 -254 236 0.061396
w 255 -254 -236 0.707627
w 256 255 237 1
w 256 255 -237 0
w 256 -255 237 0
w 256 -255 -237 0
w 257 256 238 1
w 257 256 -238 1
w 257 -256 238 0
w 257 -256 -238 1
w 258 257 239 0.130623
w 258 257 -239 0.963565
w 258 -257 239 0.167161
w 258 -257 -239 0.719829
w 259 258 240 0
w 259 258 -240 0
w 259 -258 240 1
w 259 -258 -240 1
w 260 259 241 0.577255
w 260 259 -241 0.760237
w 260 -259 241 0.372808
w 260 -259 -241 0.471736
w 261 260 242 0
w 261 260 -242 1
w 261 -260 242 0
w 261 -260 -242 0
w 262 261 243 1
w 262 261 -243 0
w 262 -261 243 1
w 262 -261 -243 1
w 263 262 244 0.814753
w 263 262 -244 0.768773
w 263 -262 244 0.647832
w 263 -262 -244 0.0517473
w 264 263 245 1
w 264 263 -245 0
w 264 -263 245 0
w 264 -263 -245 0
w 265 264 246 0.64527
w 265 264 -246 0.505865
w 265 -264 246 0.0946652
w 265 -264 -246 0.450759
w 266 265 247 1
w 266 265 -247 1
w 266 -265 247 1
w 266 -265 -247 0
w 267 248 1
w 267 -248 0
w 268 267 249 0.89165
w 268 267 -249 0.582369
w 268 -267 249 0.903727
w 268 -267 -249 0.991178
w 269 268 250 1
w 269 268 -250 0
w 269 -268 250 1
w 269 -268 -250 1
w 270 269 251 0.187733
w 270 269 -251 0.303438
w 270 -269 251 0.63522
w 270 -269 -251 0.630894
w 271 270 252 0.81759
w 271 270 -252 0.03762
w 271 -270 252 0.90982
w 271 -270 -252 0.71979
w 272 271 253 0.415684
w 272 271 -253 0.814455
w 272 -271 253 0.133649
w 272 -271 -253 0.581882
w 273 272 254 1
w 273 272 -254 0
w 273 -272 254 1
w 273 -272 -254 0
w 274 273 255 0.416108
w 274 273 -255 0.553062
w 274 -273 255 0.127913
w 274 -273 -255 0.319835
w 275 274 256 0.295846
w 275 274 -256 0.247114
w 275 -274 256 0.31296
w 275 -274 -256 0.714806
w 276 275 257 0.896433
w 276 275 -257 0.902538
w 276 -275 257 0.206158
w 276 -275 -257 0.531653
w 277 276 258 0.729207
w 277 276 -258 0.349243
w 277 -276 258 0.571052
w 277 -276 -258 0.639026
w 278 277 259 0
w 278 277 -259 1
w 278 -277 259 1
w 278 -277 -259 1
w 279 278 260 0
w 279 278 -260 0
w 279 -278 260 1
w 279 -278 -260 0
w 280 279 261 0.246845
w 280 279 -261 0.763728
w 280 -279 261 0.818366
w 280 -279 -261 0.56668
w 281 280 262 0
w 281 280 -262 0
w 281 -280 262 1
w 281 -280 -262 0
w 282 281 263 0.51736
w 282 281 -263 0.731556
w 282 -281 263 0.922672
w 282 -281 -263 0.0490124
w 283 282 264 1
w 283 282 -264 0
w 283 -282 264 0
w 283 -282 -264 1
w 284 283 265 1
w 284 283 -265 0
w 284 -283 265 0
w 284 -283 -265 0
w 285 284 266 0.697229
w 285 284 -266 0.026827
w 285 -284 266 0.127118
w 285 -284 -266 0.527966
w 286 267 0
w 286 -267 1
w 287 286 268 0.00121975
w 287 286 -268 0.635938
w 287 -286 268 0.341491
w 287 -286 -268 0.309187
w 288 287 269 0.155285
w 288 287 -269 0.930114
w 288 -287 269 0.579169
w 288 -287 -269 0.871799
w 289 288 270 0
w 289 288 -270 0
w 289 -288 270 0
w 289 -288 -270 1
w 290 289 271 0.411754
w 290 289 -271 0.737255
w 290 -289 271 0.36203
w 290 -289 -271 0.501737
w 291 290 272 0
w 291 290 -272 1
w 291 -290 272 0
w 291 -290 -272 1
w 292 291 273 1
w 292 291 -273 0
w 292 -291 273 0
w 292 -291 -273 0
w 293 292 274 1
w 293 292 -274 1
w 293 -292 274 1
w 293 -292 -274 0
w 294 293 275 0
w 294 293 -275 1
w 294 -293 275 1
w 294 -293 -275 0
w 295 294 276 1
w 295 294 -276 0
w 295 -294 276 0
w 295 -294 -276 1
w 296 295 277 1
w 296 295 -277 0
w 296 -295 277 1
w 296 -295 -277 0
w 297 296 278 1
w 297 296 -278 0
w 297 -296 278 1
w 297 -296 -278 0
w 298 297 279 0.399613
w 298 297 -279 0.745727
w 298 -297 279 0.00403572
w 298 -297 -279 0.409382
w 299 298 280 1
w 299 298 -280 0
w 299 -298 280 1
w 299 -298 -280 1
w 300 299 281 0
w 300 299 -281 1
w 300 -299 281 0
w 300 -299 -281 1
w 301 300 282 0
w 301 300 -282 1
w 301 -300 282 0
w 301 -300 -282 0
w 302 301 283 1
w 302 301 -283 1
w 302 -301 283 0
w 302 -301 -283 0
w 303 302 284 0.2037
w 303 302 -284 0.0522313
w 303 -302 284 0.375642
w 303 -302 -284 0.411115
w 304 303 285 0.136048
w 304 303 -285 0.810728
w 304 -303 285 0.605684
w 304 -303 -285 0.140084
w 305 286 1
w 305 -286 0
w 306 305 287 1
w 306 305 -287 0
w 306 -305 287 1
w 306 -305 -287 0
w 307 306 288 1
w 307 306 -288 0
w 307 -306 288 1
w 307 -306 -288 1
w 308 307 289 0.783015
w 308 307 -289 0.344469
w 308 -307 289 0.437046
w 308 -307 -289 0.784911
w 309 308 290 0
w 309 308 -290 0
w 309 -308 290 1
w 309 -308 -290 0
w 310 309 291 1
w 310 309 -291 0
w 310 -309 291 1
w 310 -309 -291 0
w 311 310 292 0
w 311 310 -292 1
w 311 -310 292 0
w 311 -310 -292 1
w 312 311 293 0.94558
w 312 311 -293 0.767126
w 312 -311 293 0.127837
w 312 -311 -293 0.137471
w 313 312 294 0
w 313 312 -294 1
w 313 -312 294 1
w 313 -312 -294 0
w 314 313 295 1
w 314 313 -295 0
w 314 -313 295 0
w 314 -313 -295 1
w 315 314 296 1
w 315 314 -296 1
w 315 -314 296 1
w 315 -314 -296 0
w 316 315 297 1
w 316 315 -297 0
w 316 -315 297 1
w 316 -315 -297 0
w 317 316 298 0.831594
w 317 316 -298 0.72775
w 317 -316 298 0.329668
w 317 -316 -298 0.388205
w 318 317 299 0
w 318 317 -299 0
w 318 -317 299 1
w 318 -317 -299 0
w 319 318 300 0
w 319 318 -300 1
w 319 -318 300 0
w 319 -318 -300 1
w 320 319 301 0.401786
w 320 319 -301 0.634716
w 320 -319 301 0.27997
w 320 -319 -301 0.0603502
w 321 320 302 0.378567
w 321 320 -302 0.0330436
w 321 -320 302 0.810762
w 321 -320 -302 0.323437
w 322 321 303 0.945352
w 322 321 -303 0.318281
w 322 -321 303 0.936675
w 322 -321 -303 0.36042
w 323 322 304 0.779801
w 323 322 -304 0.192014
w 323 -322 304 0.501964
w 323 -322 -304 0.109469
w 324 305 0.72164
w 324 -305 0.989905
w 325 324 306 0.708442
w 325 324 -306 0.998177
w 325 -324 306 0.385259
w 325 -324 -306 0.188517
w 326 325 307 0
w 326 325 -307 0
w 326 -325 307 0
w 326 -325 -307 1
w 327 326 308 0.680046
w 327 326 -308 0.935084
w 327 -326 308 0.529712
w 327 -326 -308 0.058613
w 328 327 309 0.340474
w 328 327 -309 0.38205
w 328 -327 309 0.942536
w 328 -327 -309 0.285826
w 329 328 310 0.879211
w 329 328 -310 0.646246
w 329 -328 310 0.474546
w 329 -328 -310 0.659011
w 330 329 311 0.976509
w 330 329 -311 0.76848
w 330 -329 311 0.41848
w 330 -329 -311 0.698149
w 331 330 312 0.332484
w 331 330 -312 0.406592
w 331 -330 312 0.756562
w 331 -330 -312 0.717742
w 332 331 313 0.190353
w 332 331 -313 0.190691
w 332 -331 313 0.909096
w 332 -331 -313 0.590429
w 333 332 314 1
w 333 332 -314 0
w 333 -332 314 0
w 333 -332 -314 1
w 334 333 315 1
w 334 333 -315 0
w 334 -333 315 1
w 334 -333 -315 0
w 335 334 316 1
w 335 334 -316 1
w 335 -334 316 1
w 335 -334 -316 0
w 336 335 317 0
w 336 335 -317 1
w 336 -335 317 0
w 336 -335 -317 1
w 337 336 318 0.249283
w 337 336 -318 0.967266
w 337 -336 318 0.732821
w 337 -336 -318 0.967025
w 338 337 319 0.923174
w 338 337 -319 0.157716
w 338 -337 319 0.47147
w 338 -337 -319 0.513603
w 339 338 320 1
w 339 338 -320 1
w 339 -338 320 1
w 339 -338 -320 0
w 340 339 321 0
w 340 339 -321 0
w 340 -339 321 1
w 340 -339 -321 0
w 341 340 322 1
w 341 340 -322 0
w 341 -340 322 0
w 341 -340 -322 0
w 342 341 323 0
w 342 341 -323 0
w 342 -341 323 1
w 342 -341 -323 0
w 343 324 0.537373
w 343 -324 0.783035
w 344 343 325 0.270194
w 344 343 -325 0.75006
w 344 -343 325 0.0746305
w 344 -343 -325 0.193368
w 345 344 326 0.546101
w 345 344 -326 0.706971
w 345 -344 326 0.130917
w 345 -344 -326 0.87537
w 346 345 327 1
w 346 345 -327 1
w 346 -345 327 0
w 346 -345 -327 1
w 347 346 328 1
w 347 346 -328 0
w 347 -346 328 1
w 347 -346 -328 0
w 348 347 329 0.614127
w 348 347 -329 0.786087
w 348 -347 329 0.887397
w 348 -347 -329 0.23108
w 349 348 330 0.448511
w 349 348 -330 0.764833
w 349 -348 330 0.315392
w 349 -348 -330 0.985884
w 350 349 331 0.827648
w 350 349 -331 0.256078
w 350 -349 331 0.297928
w 350 -349 -331 0.902279
w 351 350 332 1
w 351 350 -332 1
w 351 -350 332 1
w 351 -350 -332 0
w 352 351 333 1
w 352 351 -333 1
w 352 -351 333 0
w 352 -351 -333 1
w 353 352 334 1
w 353 352 -334 0
w 353 -352 334 1
w 353 -352 -334 0
w 354 353 335 1
w 354 353 -335 0
w 354 -353 335 0
w 354 -353 -335 0
w 355 354 336 1
w 355 354 -336 1
w 355 -354 336 1
w 355 -354 -336 0
w 356 355 337 0.606215
w 356 355 -337 0.0440313
w 356 -355 337 0.0103867
w 356 -355 -337 0.904142
w 357 356 338 0.459833
w 357 356 -338 0.109846
w 357 -356 338 0.39469
w 357 -356 -338 0.61625
w 358 357 339 0
w 358 357 -339 1
w 358 -357 339 0
w 358 -357 -339 0
w 359 358 340 0.375698
w 359 358 -340 0.587152
w 359 -358 340 0.195606
w 359 -358 -340 0.264056
w 360 359 341 0
w 360 359 -341 1
w 360 -359 341 0
w 360 -359 -341 0
w 361 360 342 0
w 361 360 -342 1
w 361 -360 342 0
w 361 -360 -342 1